IrN4                                    
   1.00000000000000     
    17.0990259999999985   -9.8721239999999995    0.0000000000000000
     0.0000000000000000   19.7442530000000005    0.0000000000000000
     0.0000000000000000    0.0000000000000000   20.0000000000000000
   C    N    Ir
   123     3     1
Selective dynamics
Direct
  0.0210214229517920  0.9792188447467977  0.0000000000000000   T   T   T
  0.1036842639197574  0.0197093885264911  0.0000000000000000   T   T   T
  0.1456478733779019  0.9782078259368984  0.0000000000000000   T   T   T
  0.2287678073391744  0.0194336736212367  0.0000000000000000   T   T   T
  0.2708621076759464  0.9780255308627955  0.0000000000000000   T   T   T
  0.3539980583808708  0.0197689458072620  0.0000000000000000   T   T   T
  0.3959336535368144  0.9783322713855899  0.0000000000000000   T   T   T
  0.4791107585421282  0.0208188166610907  0.0000000000000000   T   T   T
  0.5209016936116619  0.9792814487916642  0.0000000000000000   T   T   T
  0.6040789979557705  0.0217559579476274  0.0000000000000000   T   T   T
  0.6459819030109184  0.9802126244729081  0.0000000000000000   T   T   T
  0.7291472539373256  0.0220919088350937  0.0000000000000000   T   T   T
  0.7711805003083060  0.9806095194038208  0.0000000000000000   T   T   T
  0.8543849286037374  0.0219365118550307  0.0000000000000000   T   T   T
  0.8965180378285652  0.9805894037073705  0.0000000000000000   T   T   T
  0.9792261151131081  0.0210977636385460  0.0000000000000000   T   T   T
  0.0196940649582067  0.1037704669450797  0.0000000000000000   T   T   T
  0.1024520400524666  0.1442713121743752  0.0000000000000000   T   T   T
  0.1441113284141354  0.1024244903439292  0.0000000000000000   T   T   T
  0.2267560070591894  0.1430100517524267  0.0000000000000000   T   T   T
  0.2694339372864767  0.1021378954117285  0.0000000000000000   T   T   T
  0.3526456462605804  0.1437321370486729  0.0000000000000000   T   T   T
  0.3950850751239768  0.1030490606047290  0.0000000000000000   T   T   T
  0.4783454734867441  0.1458294358106161  0.0000000000000000   T   T   T
  0.5202995740201952  0.1044381462777701  0.0000000000000000   T   T   T
  0.6034621644121930  0.1471054187175246  0.0000000000000000   T   T   T
  0.6452627392792787  0.1052804134507729  0.0000000000000000   T   T   T
  0.7284677323499669  0.1469746587162646  0.0000000000000000   T   T   T
  0.7702749296827709  0.1052515737716416  0.0000000000000000   T   T   T
  0.8534375866120747  0.1466091893870444  0.0000000000000000   T   T   T
  0.8952171442240450  0.1048418677681234  0.0000000000000000   T   T   T
  0.9781468094922333  0.1456960550691197  0.0000000000000000   T   T   T
  0.0193880576292750  0.2288079159549912  0.0000000000000000   T   T   T
  0.1021308049841717  0.2695056333860350  0.0000000000000000   T   T   T
  0.1430861547558629  0.2269735014646496  0.0000000000000000   T   T   T
  0.2254133442198218  0.2669942515351804  0.0000000000000000   T   T   T
  0.2666688081751368  0.2252874741348682  0.0000000000000000   T   T   T
  0.3494193257035911  0.2658957905158083  0.0000000000000000   T   T   T
  0.3932731481420890  0.2264624295119977  0.0000000000000000   T   T   T
  0.4764792473429814  0.2697528004361105  0.0000000000000000   T   T   T
  0.5193669716509548  0.2293652493957962  0.0000000000000000   T   T   T
  0.6026130713868874  0.2728104969063464  0.0000000000000000   T   T   T
  0.6445826460897929  0.2309161085358431  0.0000000000000000   T   T   T
  0.7279095162195202  0.2721295548420371  0.0000000000000000   T   T   T
  0.7697060647758208  0.2303205363566001  0.0000000000000000   T   T   T
  0.8530585435559781  0.2715685107107778  0.0000000000000000   T   T   T
  0.8947170507501913  0.2297003302734135  0.0000000000000000   T   T   T
  0.9779551478037717  0.2708594949845896  0.0000000000000000   T   T   T
  0.0197433313397488  0.3540021996731967  0.0000000000000000   T   T   T
  0.1030760824120146  0.3950351435226448  0.0000000000000000   T   T   T
  0.1439019909771918  0.3527009295923701  0.0000000000000000   T   T   T
  0.2267328619703282  0.3933481593585461  0.0000000000000000   T   T   T
  0.2664699823560031  0.3499221821671534  0.0000000000000000   T   T   T
  0.3477423322109020  0.3899131110581429  0.0000000000000000   T   T   T
  0.3897959593135318  0.3471175725001885  0.0000000000000000   T   T   T
  0.5152010475116701  0.3533075276135325  0.0000000000000000   T   T   T
  0.6004087035622754  0.3994008061184669  0.0000000000000000   T   T   T
  0.6428692755254585  0.3570841007481915  0.0000000000000000   T   T   T
  0.7270849837962151  0.3973813906552449  0.0000000000000000   T   T   T
  0.7690826074321039  0.3554514757850377  0.0000000000000000   T   T   T
  0.8528721975641360  0.3965569086020502  0.0000000000000000   T   T   T
  0.8947286631971934  0.3547673599572393  0.0000000000000000   T   T   T
  0.9782451869719084  0.3959200825216211  0.0000000000000000   T   T   T
  0.0207298364738042  0.4790667672994923  0.0000000000000000   T   T   T
  0.1044326421970326  0.5202243902564970  0.0000000000000000   T   T   T
  0.1459717785165575  0.4783083220546460  0.0000000000000000   T   T   T
  0.2295957452631504  0.5192875568396929  0.0000000000000000   T   T   T
  0.2704873935560076  0.4765560862414970  0.0000000000000000   T   T   T
  0.3541078274352450  0.5157725696553352  0.0000000000000000   T   T   T
  0.6455650029946868  0.4846722484377803  0.0000000000000000   T   T   T
  0.7294336217832627  0.5234306980097669  0.0000000000000000   T   T   T
  0.7701567003433120  0.4806360519412055  0.0000000000000000   T   T   T
  0.8539006907038744  0.5216165607222907  0.0000000000000000   T   T   T
  0.8954116933789038  0.4797110310231923  0.0000000000000000   T   T   T
  0.9791421365989160  0.5208636327490044  0.0000000000000000   T   T   T
  0.0217062434749794  0.6040601320330884  0.0000000000000000   T   T   T
  0.1051602462912773  0.6452426518239962  0.0000000000000000   T   T   T
  0.1468642717033327  0.6033990420704767  0.0000000000000000   T   T   T
  0.2305277467308764  0.6445328230370334  0.0000000000000000   T   T   T
  0.2722723135815947  0.6025433793662358  0.0000000000000000   T   T   T
  0.3562056843989952  0.6431409759217422  0.0000000000000000   T   T   T
  0.3986045622992762  0.6011853508440462  0.0000000000000000   T   T   T
  0.4828625351382300  0.6456805933086702  0.0000000000000000   T   T   T
  0.6118964870997710  0.6529840159771944  0.0000000000000000   T   T   T
  0.6539424860306339  0.6113137937579958  0.0000000000000000   T   T   T
  0.7348171333375120  0.6506845518069181  0.0000000000000000   T   T   T
  0.7737145094895308  0.6066867655173269  0.0000000000000000   T   T   T
  0.8564083337776724  0.6472991385568363  0.0000000000000000   T   T   T
  0.8970077835376764  0.6048794905881949  0.0000000000000000   T   T   T
  0.9802928478866425  0.6459940144140112  0.0000000000000000   T   T   T
  0.0220653784463129  0.7291633076826215  0.0000000000000000   T   T   T
  0.1052740203946315  0.7703256768803635  0.0000000000000000   T   T   T
  0.1469072431011537  0.7284662412381339  0.0000000000000000   T   T   T
  0.2302531732420611  0.7697714316949388  0.0000000000000000   T   T   T
  0.2720369583012014  0.7279682734254183  0.0000000000000000   T   T   T
  0.3553716237184774  0.7693669822422254  0.0000000000000000   T   T   T
  0.3972862819456168  0.7274362064919689  0.0000000000000000   T   T   T
  0.4805905509901559  0.7705288037699396  0.0000000000000000   T   T   T
  0.5229187293223484  0.7293917039669269  0.0000000000000000   T   T   T
  0.6065405351546176  0.7730821553458036  0.0000000000000000   T   T   T
  0.6509431040667559  0.7340664376380118  0.0000000000000000   T   T   T
  0.7336834048692857  0.7751932536704388  0.0000000000000000   T   T   T
  0.7751315250364246  0.7335965945693272  0.0000000000000000   T   T   T
  0.8573663165728210  0.7734872773130963  0.0000000000000000   T   T   T
  0.8980327103632779  0.7306246954604406  0.0000000000000000   T   T   T
  0.9807358236756830  0.7713037617460818  0.0000000000000000   T   T   T
  0.0219336298898962  0.8544504290935515  0.0000000000000000   T   T   T
  0.1048354300585350  0.8953039190641675  0.0000000000000000   T   T   T
  0.1465952978378115  0.8534905762873248  0.0000000000000000   T   T   T
  0.2297236551782588  0.8948194724351567  0.0000000000000000   T   T   T
  0.2715452471736277  0.8531347545921228  0.0000000000000000   T   T   T
  0.3547488737751815  0.8948538649640012  0.0000000000000000   T   T   T
  0.3965486313537813  0.8530915642445488  0.0000000000000000   T   T   T
  0.4797165300569721  0.8956397174837197  0.0000000000000000   T   T   T
  0.5216249534758870  0.8541911193340179  0.0000000000000000   T   T   T
  0.6048784674045187  0.8968975702617221  0.0000000000000000   T   T   T
  0.6471069385354360  0.8558034685721976  0.0000000000000000   T   T   T
  0.7305581673730258  0.8979308482981423  0.0000000000000000   T   T   T
  0.7735283451274082  0.8573913608595348  0.0000000000000000   T   T   T
  0.8561483568784527  0.8979253980054762  0.0000000000000000   T   T   T
  0.8978682558673332  0.8561299223201448  0.0000000000000000   T   T   T
  0.9805395264169845  0.8965253376627635  0.0000000000000000   T   T   T
  0.5289066370258360  0.6083618358658763  0.0000000000000000   T   T   T
  0.4696312177700170  0.3872771081211100  0.0000000000000000   T   T   T
  0.3899843656001460  0.4707705431649672  0.0000000000000000   T   T   T
  0.6110561217857987  0.5306029583490833  0.0000000000000000   T   T   T
  0.4997239800567452  0.5006821553616673  0.0000000000000000   T   T   T
 
  0.00000000E+00  0.00000000E+00  0.00000000E+00
  0.00000000E+00  0.00000000E+00  0.00000000E+00
  0.00000000E+00  0.00000000E+00  0.00000000E+00
  0.00000000E+00  0.00000000E+00  0.00000000E+00
  0.00000000E+00  0.00000000E+00  0.00000000E+00
  0.00000000E+00  0.00000000E+00  0.00000000E+00
  0.00000000E+00  0.00000000E+00  0.00000000E+00
  0.00000000E+00  0.00000000E+00  0.00000000E+00
  0.00000000E+00  0.00000000E+00  0.00000000E+00
  0.00000000E+00  0.00000000E+00  0.00000000E+00
  0.00000000E+00  0.00000000E+00  0.00000000E+00
  0.00000000E+00  0.00000000E+00  0.00000000E+00
  0.00000000E+00  0.00000000E+00  0.00000000E+00
  0.00000000E+00  0.00000000E+00  0.00000000E+00
  0.00000000E+00  0.00000000E+00  0.00000000E+00
  0.00000000E+00  0.00000000E+00  0.00000000E+00
  0.00000000E+00  0.00000000E+00  0.00000000E+00
  0.00000000E+00  0.00000000E+00  0.00000000E+00
  0.00000000E+00  0.00000000E+00  0.00000000E+00
  0.00000000E+00  0.00000000E+00  0.00000000E+00
  0.00000000E+00  0.00000000E+00  0.00000000E+00
  0.00000000E+00  0.00000000E+00  0.00000000E+00
  0.00000000E+00  0.00000000E+00  0.00000000E+00
  0.00000000E+00  0.00000000E+00  0.00000000E+00
  0.00000000E+00  0.00000000E+00  0.00000000E+00
  0.00000000E+00  0.00000000E+00  0.00000000E+00
  0.00000000E+00  0.00000000E+00  0.00000000E+00
  0.00000000E+00  0.00000000E+00  0.00000000E+00
  0.00000000E+00  0.00000000E+00  0.00000000E+00
  0.00000000E+00  0.00000000E+00  0.00000000E+00
  0.00000000E+00  0.00000000E+00  0.00000000E+00
  0.00000000E+00  0.00000000E+00  0.00000000E+00
  0.00000000E+00  0.00000000E+00  0.00000000E+00
  0.00000000E+00  0.00000000E+00  0.00000000E+00
  0.00000000E+00  0.00000000E+00  0.00000000E+00
  0.00000000E+00  0.00000000E+00  0.00000000E+00
  0.00000000E+00  0.00000000E+00  0.00000000E+00
  0.00000000E+00  0.00000000E+00  0.00000000E+00
  0.00000000E+00  0.00000000E+00  0.00000000E+00
  0.00000000E+00  0.00000000E+00  0.00000000E+00
  0.00000000E+00  0.00000000E+00  0.00000000E+00
  0.00000000E+00  0.00000000E+00  0.00000000E+00
  0.00000000E+00  0.00000000E+00  0.00000000E+00
  0.00000000E+00  0.00000000E+00  0.00000000E+00
  0.00000000E+00  0.00000000E+00  0.00000000E+00
  0.00000000E+00  0.00000000E+00  0.00000000E+00
  0.00000000E+00  0.00000000E+00  0.00000000E+00
  0.00000000E+00  0.00000000E+00  0.00000000E+00
  0.00000000E+00  0.00000000E+00  0.00000000E+00
  0.00000000E+00  0.00000000E+00  0.00000000E+00
  0.00000000E+00  0.00000000E+00  0.00000000E+00
  0.00000000E+00  0.00000000E+00  0.00000000E+00
  0.00000000E+00  0.00000000E+00  0.00000000E+00
  0.00000000E+00  0.00000000E+00  0.00000000E+00
  0.00000000E+00  0.00000000E+00  0.00000000E+00
  0.00000000E+00  0.00000000E+00  0.00000000E+00
  0.00000000E+00  0.00000000E+00  0.00000000E+00
  0.00000000E+00  0.00000000E+00  0.00000000E+00
  0.00000000E+00  0.00000000E+00  0.00000000E+00
  0.00000000E+00  0.00000000E+00  0.00000000E+00
  0.00000000E+00  0.00000000E+00  0.00000000E+00
  0.00000000E+00  0.00000000E+00  0.00000000E+00
  0.00000000E+00  0.00000000E+00  0.00000000E+00
  0.00000000E+00  0.00000000E+00  0.00000000E+00
  0.00000000E+00  0.00000000E+00  0.00000000E+00
  0.00000000E+00  0.00000000E+00  0.00000000E+00
  0.00000000E+00  0.00000000E+00  0.00000000E+00
  0.00000000E+00  0.00000000E+00  0.00000000E+00
  0.00000000E+00  0.00000000E+00  0.00000000E+00
  0.00000000E+00  0.00000000E+00  0.00000000E+00
  0.00000000E+00  0.00000000E+00  0.00000000E+00
  0.00000000E+00  0.00000000E+00  0.00000000E+00
  0.00000000E+00  0.00000000E+00  0.00000000E+00
  0.00000000E+00  0.00000000E+00  0.00000000E+00
  0.00000000E+00  0.00000000E+00  0.00000000E+00
  0.00000000E+00  0.00000000E+00  0.00000000E+00
  0.00000000E+00  0.00000000E+00  0.00000000E+00
  0.00000000E+00  0.00000000E+00  0.00000000E+00
  0.00000000E+00  0.00000000E+00  0.00000000E+00
  0.00000000E+00  0.00000000E+00  0.00000000E+00
  0.00000000E+00  0.00000000E+00  0.00000000E+00
  0.00000000E+00  0.00000000E+00  0.00000000E+00
  0.00000000E+00  0.00000000E+00  0.00000000E+00
  0.00000000E+00  0.00000000E+00  0.00000000E+00
  0.00000000E+00  0.00000000E+00  0.00000000E+00
  0.00000000E+00  0.00000000E+00  0.00000000E+00
  0.00000000E+00  0.00000000E+00  0.00000000E+00
  0.00000000E+00  0.00000000E+00  0.00000000E+00
  0.00000000E+00  0.00000000E+00  0.00000000E+00
  0.00000000E+00  0.00000000E+00  0.00000000E+00
  0.00000000E+00  0.00000000E+00  0.00000000E+00
  0.00000000E+00  0.00000000E+00  0.00000000E+00
  0.00000000E+00  0.00000000E+00  0.00000000E+00
  0.00000000E+00  0.00000000E+00  0.00000000E+00
  0.00000000E+00  0.00000000E+00  0.00000000E+00
  0.00000000E+00  0.00000000E+00  0.00000000E+00
  0.00000000E+00  0.00000000E+00  0.00000000E+00
  0.00000000E+00  0.00000000E+00  0.00000000E+00
  0.00000000E+00  0.00000000E+00  0.00000000E+00
  0.00000000E+00  0.00000000E+00  0.00000000E+00
  0.00000000E+00  0.00000000E+00  0.00000000E+00
  0.00000000E+00  0.00000000E+00  0.00000000E+00
  0.00000000E+00  0.00000000E+00  0.00000000E+00
  0.00000000E+00  0.00000000E+00  0.00000000E+00
  0.00000000E+00  0.00000000E+00  0.00000000E+00
  0.00000000E+00  0.00000000E+00  0.00000000E+00
  0.00000000E+00  0.00000000E+00  0.00000000E+00
  0.00000000E+00  0.00000000E+00  0.00000000E+00
  0.00000000E+00  0.00000000E+00  0.00000000E+00
  0.00000000E+00  0.00000000E+00  0.00000000E+00
  0.00000000E+00  0.00000000E+00  0.00000000E+00
  0.00000000E+00  0.00000000E+00  0.00000000E+00
  0.00000000E+00  0.00000000E+00  0.00000000E+00
  0.00000000E+00  0.00000000E+00  0.00000000E+00
  0.00000000E+00  0.00000000E+00  0.00000000E+00
  0.00000000E+00  0.00000000E+00  0.00000000E+00
  0.00000000E+00  0.00000000E+00  0.00000000E+00
  0.00000000E+00  0.00000000E+00  0.00000000E+00
  0.00000000E+00  0.00000000E+00  0.00000000E+00
  0.00000000E+00  0.00000000E+00  0.00000000E+00
  0.00000000E+00  0.00000000E+00  0.00000000E+00
  0.00000000E+00  0.00000000E+00  0.00000000E+00
  0.00000000E+00  0.00000000E+00  0.00000000E+00
  0.00000000E+00  0.00000000E+00  0.00000000E+00
  0.00000000E+00  0.00000000E+00  0.00000000E+00
  0.00000000E+00  0.00000000E+00  0.00000000E+00
  0.00000000E+00  0.00000000E+00  0.00000000E+00
